% Data file generated from RandomInstances/14_0.90_2.col DIMACS file
size = 14;

chi = 10;

adjacency = [|0,1,1,1,1,1,1,1,1,1,1,0,1,0,
|1,0,1,0,1,1,1,1,1,1,1,1,1,1,
|1,1,0,1,1,1,1,1,1,1,1,0,1,1,
|1,0,1,0,1,1,1,1,1,1,1,1,1,1,
|1,1,1,1,0,1,1,1,0,1,1,1,1,0,
|1,1,1,1,1,0,1,1,1,1,1,1,1,1,
|1,1,1,1,1,1,0,1,1,1,1,1,1,1,
|1,1,1,1,1,1,1,0,1,1,1,1,1,1,
|1,1,1,1,0,1,1,1,0,1,1,0,1,0,
|1,1,1,1,1,1,1,1,1,0,1,1,1,1,
|1,1,1,1,1,1,1,1,1,1,0,1,1,1,
|0,1,0,1,1,1,1,1,0,1,1,0,1,1,
|1,1,1,1,1,1,1,1,1,1,1,1,0,1,
|0,1,1,1,0,1,1,1,0,1,1,1,1,0,
|];